Set parameter Username
Academic license - for non-commercial use only - expires 2022-06-20
Gurobi Optimizer version 9.5.1 build v9.5.1rc2 (mac64[x86])
Thread count: 2 physical cores, 4 logical processors, using up to 4 threads
Optimize a model with 3025 rows, 2916 columns and 11610 nonzeros
Model fingerprint: 0x402e9334
Coefficient statistics:
  Matrix range     [1e+00, 1e+03]
  Objective range  [1e+00, 9e+00]
  Bounds range     [1e+00, 1e+00]
  RHS range        [1e+00, 8e+00]
Presolve removed 54 rows and 0 columns
Presolve time: 0.01s
Presolved: 2971 rows, 2916 columns, 11610 nonzeros

Iteration    Objective       Primal Inf.    Dual Inf.      Time
       0    0.0000000e+00   1.412000e+03   0.000000e+00      0s
     690    5.3700947e+01   0.000000e+00   0.000000e+00      0s

Solved in 690 iterations and 0.06 seconds (0.04 work units)
Optimal objective  5.370094701e+01
Set parameter LazyConstraints to value 1
Gurobi Optimizer version 9.5.1 build v9.5.1rc2 (mac64[x86])
Thread count: 2 physical cores, 4 logical processors, using up to 4 threads
Optimize a model with 3025 rows, 2916 columns and 11610 nonzeros
Model fingerprint: 0xc7980385
Variable types: 0 continuous, 2916 integer (2916 binary)
Coefficient statistics:
  Matrix range     [1e+00, 1e+03]
  Objective range  [1e+00, 9e+00]
  Bounds range     [1e+00, 1e+00]
  RHS range        [1e+00, 8e+00]
Presolve removed 54 rows and 0 columns
Presolve time: 0.07s
Presolved: 2971 rows, 2916 columns, 11610 nonzeros
Variable types: 0 continuous, 2916 integer (2916 binary)

Root relaxation: objective 5.370651e+01, 692 iterations, 0.03 seconds (0.03 work units)

    Nodes    |    Current Node    |     Objective Bounds      |     Work
 Expl Unexpl |  Obj  Depth IntInf | Incumbent    BestBd   Gap | It/Node Time

     0     0   53.70651    0  113          -   53.70651      -     -    0s
     0     0   54.27764    0  175          -   54.27764      -     -    0s
     0     0   54.28484    0  184          -   54.28484      -     -    1s
     0     0   54.47625    0  192          -   54.47625      -     -    1s
     0     0   54.66214    0  175          -   54.66214      -     -    1s
     0     0   54.73393    0  155          -   54.73393      -     -    1s
     0     0   54.73564    0  155          -   54.73564      -     -    1s
     0     0   54.76545    0  156          -   54.76545      -     -    1s
     0     0   54.77294    0  161          -   54.77294      -     -    1s
     0     0   54.81071    0  178          -   54.81071      -     -    2s
     0     0   54.81106    0  177          -   54.81106      -     -    2s
     0     0   54.84440    0  167          -   54.84440      -     -    2s
     0     0   54.84577    0  165          -   54.84577      -     -    2s
     0     0   54.87072    0  166          -   54.87072      -     -    2s
     0     0   54.87072    0  160          -   54.87072      -     -    2s
     0     2   54.87072    0  160          -   54.87072      -     -    3s
   356   379   58.57816   21   47          -   55.15463      -  39.6    5s
   780   675   62.80176   52  154          -   55.19629      -  26.7   11s
   796   689   55.19629   15  191          -   55.19629      -  28.1   15s
  1239   952   72.83886   69    6          -   55.19629      -  31.5   20s
  2185  1460   57.59760   38    8          -   55.29932      -  29.1   25s
H 2507   846                      59.7498345   55.33828  7.38%  29.9   30s
H 2829   631                      58.3356209   55.43958  4.96%  31.9   32s
  3258   854   56.19758   25  139   58.33562   55.57788  4.73%  35.7   35s
H 3388   753                      57.6853394   55.57788  3.65%  37.3   35s
H 3684   627                      57.2776985   55.67383  2.80%  38.3   37s
